NAME : single
TYPE : ATSP
DIMENSION : 6
EDGE_WEIGHT_TYPE : EXPLICIT
EDGE_WEIGHT_FORMAT : FULL_MATRIX
EDGE_WEIGHT_SECTION
0 125077 125042 125044 125060 125051 
0 0 125000 125000 125000 125000 
0 125000 0 172 318 274 
0 125000 172 0 244 139 
0 125000 318 244 0 169 
0 125000 274 139 169 0 
EOF